0 5 4 6 7 7 6 5 8 1
5 0 3 9 4 2 3 4 1 1
4 3 0 4 7 1 9 2 8 6
6 9 4 0 6 4 2 5 4 6
7 4 7 6 0 4 5 6 7 2
7 2 1 4 4 0 7 1 7 9
6 3 9 2 5 7 0 7 3 6
5 4 2 5 6 1 7 0 7 7
8 1 8 4 7 7 3 7 0 5
1 1 6 6 2 9 6 7 5 0
